id: 1219
name: ns1663818
group: miplib2010
method: 1

Gurobi 7.0.2 (linux64, Matlab) logging started Fri Apr 20 03:29:35 2018


Gurobi 7.0.2 (linux64) logging started Fri Apr 20 03:29:35 2018

Optimize a model with 172017 rows, 124626 columns and 20433649 nonzeros
Coefficient statistics:
  Matrix range     [1e+00, 1e+03]
  Objective range  [1e+00, 3e+02]
  Bounds range     [1e+00, 1e+00]
  RHS range        [1e+00, 2e+03]
Presolve removed 4972 rows and 1601 columns
Presolve time: 3.54s
Presolved: 167045 rows, 123025 columns, 20177992 nonzeros

Iteration    Objective       Primal Inf.    Dual Inf.      Time
       0    0.0000000e+00   6.297852e+00   0.000000e+00      4s
     882    1.0000000e+00   0.000000e+00   0.000000e+00      5s

Solved in 882 iterations and 4.79 seconds
Optimal objective  1.000000000e+00
status: OPTIMAL
